p ocr 136 122 257
1 193
1 257
2 193
3 193
4 193
5 193
6 193
7 193
8 193
9 193
10 193
11 193
12 193
13 193
14 193
15 193
16 193
17 193
18 193
19 193
20 193
21 193
22 193
23 193
24 193
25 193
26 193
27 193
28 193
29 193
30 193
31 193
32 193
33 193
34 193
35 193
36 193
37 193
38 193
39 193
40 193
41 193
42 193
43 193
44 193
45 193
46 193
47 193
48 193
49 193
50 193
51 193
52 193
53 193
54 193
55 193
56 193
57 193
58 193
59 193
60 193
61 193
62 193
63 193
64 193
65 193
66 193
67 193
68 193
69 193
70 193
71 193
72 193
73 193
74 193
75 193
76 193
77 193
78 193
79 193
80 193
81 193
82 193
83 193
84 193
85 193
86 193
87 193
88 193
89 193
90 193
91 193
92 193
93 193
94 193
95 193
96 193
97 193
98 193
99 193
100 193
101 193
102 193
103 193
104 193
105 193
106 193
107 193
108 193
109 193
110 193
111 193
112 193
113 193
114 193
115 193
116 193
117 193
118 193
119 193
120 193
121 137
121 138
121 139
121 140
121 141
121 142
121 143
121 144
121 145
121 146
121 147
121 148
121 149
121 150
121 151
121 152
121 153
121 154
121 155
121 156
121 157
121 158
121 159
121 160
121 161
121 162
121 163
121 164
121 165
121 166
121 167
121 168
121 169
121 170
121 171
121 172
121 173
121 174
121 175
121 176
121 177
121 178
121 179
121 180
121 181
121 182
121 183
121 184
121 185
121 186
121 187
121 188
121 189
121 190
121 191
121 192
121 193
121 194
121 195
121 196
121 197
121 198
121 199
121 200
121 201
121 202
121 203
121 204
121 205
121 206
121 207
121 208
121 209
121 210
121 211
121 212
121 213
121 214
121 215
121 216
121 217
121 218
121 219
121 220
121 221
121 222
121 223
121 224
121 225
121 226
121 227
121 228
121 229
121 230
121 231
121 232
121 233
121 234
121 235
121 236
121 237
121 238
121 239
121 240
121 241
121 242
121 243
121 244
121 245
121 246
121 247
121 248
121 249
121 250
121 251
121 252
121 253
121 254
121 255
121 256
121 258
122 257
123 257
124 257
125 257
126 257
127 257
128 257
129 257
130 257
131 257
132 257
133 257
134 257
135 257
136 257